Si
 1.0000000000000000
    -2.6061763020000002   -1.0903449180000000   -2.9404723220000002
     0.5865153910000001    6.0529136599999998    0.0000000000000000
     6.3833849530000002   -1.0903449180000000   -2.9404723220000002
 Si
  16
Direct
  0.3070812819999999  0.6860931950000000  0.8963142960000001
  0.6929187179999999  0.3139068050000000  0.1036857040000000
  0.3251182319999999  0.7425120320000000  0.6126330150000001
  0.6748817680000000  0.2574879680000000  0.3873669850000000
  0.3338366830000000  0.9325544969999999  0.1243243840000000
  0.6661633170000001  0.0674455030000000  0.8756756160000000
  0.2962155640000000  0.2263843720000000  0.7243001350000000
  0.7037844360000000  0.7736156280000002  0.2756998650000000
  0.6912703190000000  0.5335325960000000  0.7196986270000000
  0.3087296810000000  0.4664674040000000  0.2803013730000000
  0.2147714660000000  0.9791871010000002  0.4452395350000001
  0.7852285340000000  0.0208128990000000  0.5547604650000000
  0.0210424489999999  0.8994823400000002  0.7919681190000000
  0.9789575509999999  0.1005176600000000  0.2080318810000001
  0.8918333560000000  0.6436353849999999  0.0183154570000000
  0.1081666440000000  0.3563646150000000  0.9816845430000000
